143
265
233
216
183
285
266
238
258
374
377
296
275
295
269
667
447
405
381
235
480
362
239
360
332
392
355
242
461
265
224
286
278
298
222
326
423
425
261
379
203
361
246
214
240
440
264
489
382
207
262
340
245
316
402
291
272
245
262
499
217
257
249
188
310
426
228
291
477
266
256
484
298
251
133
208
349
234
388
235
385
381
417
246
214
316
194
268
377
567
280
235
225
254
558
311
302
333
232
369
